
Gurobi 8.1.0 (win64, Python) logging started 02/06/19 23:41:21

Academic license - for non-commercial use only

Gurobi 8.1.0 (win64, Python) logging started 02/06/19 23:42:34

Academic license - for non-commercial use only
